21
VB- defect cluster in hBN - EXCITED STATE
N  2.548585  2.834953  7.500000
N  1.181253  5.092395  7.500000
N  3.818253  5.035747  7.500000
B  1.298917  2.216201  7.500000
B  -0.017311  4.362005  7.500000
B  3.762381  2.173130  7.500000
B  1.213632  6.495625  7.500000
B  4.997892  4.314731  7.500000
B  3.729064  6.427685  7.500000
N  0.001069   2.908222   7.500000
N  5.037414  2.864775  7.500000
N  2.481652  7.206661  7.500000
H  1.281002 1.026336 7.500000
H  -1.058521 4.938184 7.500000
H  3.761096 0.983130 7.500000
H  0.193820 7.108881 7.500000
H  6.027801 4.910876 7.500000
H  4.750787 7.037752 7.500000
H  -0.861671  2.383075  7.500000
H  5.912272 2.360073 7.500000
H  2.505469 8.216380 7.500000
