21
VB- defect cluster in hBN - GROUND STATE
N  2.500000  2.826569  7.500000
N  1.197881  5.081906  7.500000
N  3.802119  5.081906  7.500000
B  1.257503  2.188710  7.500000
B  0.024230  4.324802  7.500000
B  3.742497  2.188710  7.500000
B  1.266727  6.476870  7.500000
B  4.975770  4.324802  7.500000
B  3.733273  6.476870  7.500000
N  -0.011788   2.879945   7.500000
N  5.011788  2.879945  7.500000
N  2.500000  7.230490  7.500000
H  1.242991 0.998798 7.500000
H  -1.013520 4.907190 7.500000
H  3.757009 0.998798 7.500000
H  0.243489 7.084393 7.500000
H  6.013520 4.907190 7.500000
H  4.756511 7.084393 7.500000
H  -0.886474  2.374945  7.500000
H  5.886474 2.374945 7.500000
H  2.500000 8.240490 7.500000
